p cnf 242 508
-45 64 -13 79 0
62 -71 19 -10 0
46 21 -30 -9 0
70 -11 78 17 0
-49 20 -24 25 0
-28 -34 -35 38 0
55 -37 81 82 0
55 -37 81 -82 0
55 -37 -81 83 0
55 -37 -81 -83 0
33 -74 -22 18 0
-71 75 29 -10 0
5 -57 -35 28 0
-12 53 -72 60 0
-74 -33 22 18 0
-70 11 -78 -17 0
51 59 -65 36 0
-52 43 31 7 0
-71 38 -34 -10 0
42 -78 76 -70 0
-73 -74 22 -27 0
48 65 50 51 0
-57 -28 -35 -5 0
69 8 84 85 0
69 8 84 -85 0
69 8 -84 86 0
69 8 -84 -86 0
71 10 -75 -29 0
15 23 87 88 0
15 23 87 -88 0
15 23 -87 89 0
15 23 -87 -89 0
57 -5 90 91 0
57 -5 90 -91 0
57 -5 -90 92 0
57 -5 -90 -92 0
-66 68 4 -47 0
78 28 35 70 0
80 -5 -6 -57 0
30 -32 -2 9 0
-29 75 93 94 0
-29 75 93 -94 0
-29 75 -93 95 0
-29 75 -93 -95 0
19 63 -26 -62 0
-70 -78 -35 -28 0
15 96 97 99 0
15 96 97 -99 0
15 96 -97 100 0
15 96 -97 -100 0
15 -96 98 101 0
15 -96 98 -101 0
15 -96 -98 102 0
15 -96 -98 -102 0
10 71 34 -38 0
-19 62 103 104 0
-19 62 103 -104 0
-19 62 -103 105 0
-19 62 -103 -105 0
43 80 -6 -52 0
-44 -48 -41 50 0
42 -76 106 107 0
42 -76 106 -107 0
42 -76 -106 108 0
42 -76 -106 -108 0
56 49 14 25 0
-15 -55 23 -37 0
40 -39 109 110 0
40 -39 109 -110 0
40 -39 -109 111 0
40 -39 -109 -111 0
60 -72 64 -13 0
38 48 -34 50 0
-55 37 -23 -15 0
35 39 28 40 0
-1 -58 23 -15 0
17 -22 -11 -74 0
64 2 13 32 0
-70 78 17 11 0
-40 -39 -60 -72 0
-60 64 13 -72 0
-2 -32 18 33 0
-45 79 18 -33 0
73 72 -27 60 0
79 76 -42 -45 0
-30 -9 63 26 0
33 79 18 45 0
79 -42 -76 45 0
10 71 -31 -7 0
3 -54 -9 30 0
74 22 27 -73 0
-12 -36 59 -53 0
24 -20 112 113 0
24 -20 112 -113 0
24 -20 -112 114 0
24 -20 -112 -114 0
29 75 15 -23 0
59 -26 36 63 0
-55 -24 37 20 0
32 -69 2 8 0
-78 70 115 116 0
-78 70 115 -116 0
-78 70 -115 117 0
-78 70 -115 -117 0
-57 -5 -44 41 0
17 11 22 -74 0
80 8 -69 -6 0
-12 -76 -53 -42 0
54 -3 118 119 0
54 -3 118 -119 0
54 -3 -118 120 0
54 -3 -118 -120 0
28 -35 38 34 0
-30 9 121 122 0
-30 9 121 -122 0
-30 9 -121 123 0
-30 9 -121 -123 0
-56 -69 14 -8 0
3 77 54 61 0
-40 -39 48 50 0
-68 -4 47 66 0
-42 -62 -19 -76 0
-34 -38 124 125 0
-34 -38 124 -125 0
-34 -38 -124 126 0
-34 -38 -124 -126 0
15 -23 55 37 0
-74 3 22 -54 0
5 57 -41 44 0
41 -66 -44 4 0
60 39 -40 -72 0
-62 29 -75 19 0
3 54 -40 -39 0
-20 -55 -24 -37 0
55 68 -47 37 0
-28 77 61 -35 0
-74 -22 -54 -3 0
-7 -21 -31 -46 0
5 19 -62 -57 0
-59 -36 127 128 0
-59 -36 127 -128 0
-59 -36 -127 129 0
-59 -36 -127 -129 0
-80 -6 5 -57 0
-2 -31 -7 -32 0
27 4 -73 -66 0
-79 -45 76 42 0
-61 28 77 -35 0
-54 -61 3 77 0
5 -41 -44 -57 0
7 31 21 46 0
-59 36 41 -44 0
63 -26 -9 30 0
-68 -66 -4 -47 0
-43 -13 -64 52 0
58 76 42 1 0
-55 56 14 -37 0
-80 -6 -72 60 0
-80 6 5 57 0
51 11 65 -17 0
25 14 -49 -56 0
41 44 130 131 0
41 44 130 -131 0
41 44 -130 132 0
41 44 -130 -132 0
9 52 -43 30 0
-46 -9 21 30 0
-50 -38 34 -48 0
21 46 -39 -40 0
7 -71 31 -10 0
-66 -41 -4 -44 0
5 35 57 28 0
68 133 134 136 0
68 133 134 -136 0
68 133 -134 137 0
68 133 -134 -137 0
68 -133 135 138 0
68 -133 135 -138 0
68 -133 -135 139 0
68 -133 -135 -139 0
12 76 42 53 0
-25 24 -49 20 0
39 -48 -50 40 0
-21 -46 -38 34 0
-44 59 36 -41 0
3 54 -30 -9 0
-75 20 29 -24 0
40 39 60 72 0
-71 10 140 141 0
-71 10 140 -141 0
-71 10 -140 142 0
-71 10 -140 -142 0
11 17 51 -65 0
-75 -15 -23 29 0
16 -12 -53 67 0
-35 39 -40 28 0
-36 44 59 -41 0
50 51 -65 -48 0
-10 34 71 38 0
-51 59 -36 -65 0
-43 -52 -69 -8 0
-1 -47 58 -68 0
76 19 -42 -62 0
51 65 -16 -67 0
-5 -57 24 20 0
13 -45 -79 64 0
-50 44 -48 -41 0
56 -14 143 144 0
56 -14 143 -144 0
56 -14 -143 145 0
56 -14 -143 -145 0
-31 7 146 147 0
-31 7 146 -147 0
-31 7 -146 148 0
-31 7 -146 -148 0
-49 -25 8 -69 0
65 -51 149 150 0
65 -51 149 -150 0
65 -51 -149 151 0
65 -51 -149 -151 0
-52 -9 43 -30 0
63 -16 -67 26 0
-68 -58 47 -1 0
69 -32 -8 -2 0
-73 17 -27 11 0
66 152 153 155 0
66 152 153 -155 0
66 152 -153 156 0
66 152 -153 -156 0
66 -152 154 157 0
66 -152 154 -157 0
66 -152 -154 158 0
66 -152 -154 -158 0
-44 41 58 1 0
-57 -24 20 5 0
-79 48 50 -45 0
36 53 12 -59 0
-6 58 1 80 0
-1 58 -6 -80 0
-31 56 -7 14 0
-47 1 68 58 0
-25 49 159 160 0
-25 49 159 -160 0
-25 49 -159 161 0
-25 49 -159 -161 0
78 70 -42 -76 0
-66 -15 -4 -23 0
-46 21 31 -7 0
3 39 -40 -54 0
55 77 37 61 0
78 70 45 79 0
-64 -13 -32 -2 0
-10 -62 19 71 0
-50 48 162 163 0
-50 48 162 -163 0
-50 48 -162 164 0
-50 48 -162 -164 0
31 2 7 32 0
-47 165 166 168 0
-47 165 166 -168 0
-47 165 -166 169 0
-47 165 -166 -169 0
-47 -165 167 170 0
-47 -165 167 -170 0
-47 -165 -167 171 0
-47 -165 -167 -171 0
-36 59 -63 -26 0
4 66 172 173 0
4 66 172 -173 0
4 66 -172 174 0
4 66 -172 -174 0
-55 47 -68 -37 0
18 33 -68 47 0
-55 14 37 -56 0
-77 -54 -3 -61 0
15 4 -23 -66 0
16 -67 -61 77 0
76 53 -12 -42 0
-1 -58 -41 44 0
80 6 175 176 0
80 6 175 -176 0
80 6 -175 177 0
80 6 -175 -177 0
-27 73 -11 17 0
63 16 -26 -67 0
21 -34 38 46 0
-54 30 9 -3 0
-72 -60 -73 27 0
36 53 -12 59 0
-56 7 31 -14 0
-69 -80 -6 -8 0
-69 -8 -49 25 0
11 36 59 17 0
-10 71 3 -54 0
60 -27 -72 -73 0
-69 -14 -56 8 0
-38 56 34 14 0
16 -67 -12 53 0
-44 -1 -41 58 0
-22 -63 -26 -74 0
34 -46 21 38 0
29 75 -49 -25 0
43 52 178 179 0
43 52 178 -179 0
43 52 -178 180 0
43 52 -178 -180 0
19 62 42 76 0
-61 67 16 -77 0
-32 2 181 182 0
-32 2 181 -182 0
-32 2 -181 183 0
-32 2 -181 -183 0
-35 -40 -28 -39 0
-13 60 -64 72 0
-38 34 35 28 0
49 -29 25 -75 0
-13 -43 64 -52 0
65 77 61 51 0
16 -26 67 -63 0
37 -14 55 -56 0
8 -52 43 -69 0
-31 52 -43 -7 0
-46 -21 39 40 0
-73 11 27 -17 0
37 -47 -68 -55 0
-61 -77 -51 -65 0
-6 -43 -80 -52 0
65 51 36 -59 0
74 -22 184 185 0
74 -22 184 -185 0
74 -22 -184 186 0
74 -22 -184 -186 0
22 -33 -18 74 0
-15 -29 -75 23 0
-2 -9 30 32 0
49 33 25 18 0
-74 -26 63 22 0
67 -16 187 188 0
67 -16 187 -188 0
67 -16 -187 189 0
67 -16 -187 -189 0
14 -56 31 -7 0
32 -2 -33 18 0
-64 45 79 -13 0
27 -70 -73 -78 0
64 -16 13 -67 0
58 -42 76 -1 0
23 190 191 193 0
23 190 191 -193 0
23 190 -191 194 0
23 190 -191 -194 0
23 -190 192 195 0
23 -190 192 -195 0
23 -190 -192 196 0
23 -190 -192 -196 0
-57 -5 62 19 0
41 48 -44 50 0
-25 -33 -18 -49 0
16 -65 -51 67 0
-8 69 52 -43 0
-59 11 36 -17 0
53 12 -60 -72 0
-21 46 197 198 0
-21 46 197 -198 0
-21 46 -197 199 0
-21 46 -197 -199 0
55 37 24 20 0
-51 17 -65 -11 0
37 -55 77 -61 0
13 -64 200 201 0
13 -64 200 -201 0
13 -64 -200 202 0
13 -64 -200 -202 0
-10 71 29 -75 0
38 34 50 -48 0
-24 -75 -29 -20 0
64 -13 16 -67 0
58 -23 1 15 0
63 74 26 22 0
-53 12 203 204 0
-53 12 203 -204 0
-53 12 -203 205 0
-53 12 -203 -205 0
-70 76 -42 78 0
70 73 -27 78 0
-41 -4 66 44 0
34 -56 14 38 0
-18 -47 -33 68 0
25 49 -20 -24 0
25 69 -8 49 0
21 -40 -46 39 0
69 56 14 -8 0
-77 28 35 -61 0
61 77 -67 -16 0
-9 -52 -43 30 0
-62 -63 -19 -26 0
32 -18 -33 2 0
78 -27 -70 -73 0
-56 -34 38 -14 0
72 -60 206 207 0
72 -60 206 -207 0
72 -60 -206 208 0
72 -60 -206 -208 0
4 12 -66 53 0
68 47 209 210 0
68 47 209 -210 0
68 47 -209 211 0
68 47 -209 -211 0
9 -46 -21 30 0
23 -15 -68 47 0
78 79 -45 -70 0
-68 -47 -23 -15 0
66 -4 -12 -53 0
-23 -1 -15 58 0
46 20 21 24 0
-45 -79 -18 -33 0
-30 -9 2 32 0
-12 -66 -4 53 0
67 -13 16 -64 0
-2 -13 32 64 0
-51 -50 -65 -48 0
27 73 212 213 0
27 73 212 -213 0
27 73 -212 214 0
27 73 -212 -214 0
-69 -8 32 -2 0
10 -3 -54 71 0
-76 -42 -1 -58 0
-20 57 5 -24 0
-46 -20 -21 -24 0
-63 -26 9 30 0
-24 20 21 -46 0
-4 215 216 218 0
-4 215 216 -218 0
-4 215 -216 219 0
-4 215 -216 -219 0
-4 -215 217 220 0
-4 -215 217 -220 0
-4 -215 -217 221 0
-4 -215 -217 -221 0
50 -45 -48 79 0
-36 17 59 -11 0
-61 -37 -77 -55 0
-10 31 71 -7 0
51 -67 16 -65 0
-47 -23 15 68 0
-19 10 -62 71 0
40 39 -3 -54 0
-77 61 222 223 0
-77 61 222 -223 0
-77 61 -222 224 0
-77 61 -222 -224 0
-4 -27 -66 -73 0
-16 12 53 -67 0
3 -71 -10 54 0
-40 -48 39 50 0
66 -27 73 -4 0
-63 26 225 226 0
-63 26 225 -226 0
-63 26 -225 227 0
-63 26 -225 -227 0
-14 -25 -56 -49 0
66 -4 -15 23 0
20 29 75 24 0
-1 -80 -58 6 0
22 74 3 54 0
35 -28 228 229 0
35 -28 228 -229 0
35 -28 -228 230 0
35 -28 -228 -230 0
13 43 -52 64 0
6 -80 69 -8 0
33 -18 231 232 0
33 -18 231 -232 0
33 -18 -231 233 0
33 -18 -231 -233 0
-79 -70 -78 -45 0
5 57 -62 -19 0
-58 1 234 235 0
-58 1 234 -235 0
-58 1 -234 236 0
-58 1 -234 -236 0
-12 72 60 -53 0
60 -80 72 6 0
-2 -7 31 32 0
-47 -68 18 -33 0
74 22 11 -17 0
26 -59 36 63 0
-62 -19 -29 -75 0
25 18 -33 -49 0
28 78 -35 -70 0
-43 -7 31 -52 0
75 19 29 62 0
19 26 62 63 0
73 -27 -74 -22 0
-6 80 -60 -72 0
-11 -17 237 238 0
-11 -17 237 -238 0
-11 -17 -237 239 0
-11 -17 -237 -239 0
52 -43 6 -80 0
51 -61 -65 77 0
79 -50 45 -48 0
-49 29 25 -75 0
-79 45 240 241 0
-79 45 240 -241 0
-79 45 -240 242 0
-79 45 -240 -242 0

